NAME : OCPPP.gtsp
TYPE : AGTSP
COMMENT : 32 node unpassable [[1, 4], [2, 4], [3, 4], [1, 5], [2, 5], [3, 5], [5, 7], [5, 8], [6, 7], [6, 8]]
DIMENSION : 32
GTSP_SETS : 16 
EDGE_WEIGHT_TYPE : EXPLICIT
EDGE_WEIGHT_FORMAT : FULL_MATRIX 
EDGE_WEIGHT_SECTION
200 200 180 180 180 180 160 160 160 160 140 140 140 140 120 120 100 100 80 80 60 60 40 40 20 20 20 20 20 20 20 20
200 200 180 180 180 180 160 160 160 160 140 140 140 140 120 120 100 100 80 80 60 60 40 40 20 20 20 20 20 20 20 20
180 180 200 200 200 200 180 180 180 180 160 160 160 160 140 140 120 120 100 100 80 80 60 60 40 40 20 20 20 20 20 20
180 180 200 200 200 200 180 180 180 180 160 160 160 160 140 140 120 120 100 100 80 80 60 60 40 40 20 20 20 20 20 20
180 180 200 200 200 200 180 180 180 180 160 160 160 160 140 140 120 120 100 100 80 80 60 60 40 40 20 20 20 20 20 20
180 180 200 200 200 200 180 180 180 180 160 160 160 160 140 140 120 120 100 100 80 80 60 60 40 40 20 20 20 20 20 20
160 160 180 180 180 180 200 200 200 200 180 180 180 180 160 160 140 140 120 120 100 100 80 80 60 60 20 20 20 20 20 20
160 160 180 180 180 180 200 200 200 200 180 180 180 180 160 160 140 140 120 120 100 100 80 80 60 60 20 20 20 20 20 20
160 160 180 180 180 180 200 200 200 200 180 180 180 180 160 160 140 140 120 120 100 100 80 80 60 60 20 20 20 20 20 20
160 160 180 180 180 180 200 200 200 200 180 180 180 180 160 160 140 140 120 120 100 100 80 80 60 60 20 20 20 20 20 20
140 140 160 160 160 160 180 180 180 180 200 200 200 200 180 180 160 160 140 140 120 120 100 100 80 80 20 20 20 20 20 20
140 140 160 160 160 160 180 180 180 180 200 200 200 200 180 180 160 160 140 140 120 120 100 100 80 80 20 20 20 20 20 20
140 140 160 160 160 160 180 180 180 180 200 200 200 200 180 180 160 160 140 140 120 120 100 100 80 80 20 20 20 20 20 20
140 140 160 160 160 160 180 180 180 180 200 200 200 200 180 180 160 160 140 140 120 120 100 100 80 80 20 20 20 20 20 20
120 120 140 140 140 140 160 160 160 160 180 180 180 180 200 200 180 180 160 160 140 140 120 120 100 100 20 20 20 20 20 20
120 120 140 140 140 140 160 160 160 160 180 180 180 180 200 200 180 180 160 160 140 140 120 120 100 100 20 20 20 20 20 20
100 100 120 120 120 120 140 140 140 140 160 160 160 160 180 180 200 200 180 180 160 160 140 140 120 120 20 20 20 20 20 20
100 100 120 120 120 120 140 140 140 140 160 160 160 160 180 180 200 200 180 180 160 160 140 140 120 120 20 20 20 20 20 20
80 80 100 100 100 100 120 120 120 120 140 140 140 140 160 160 180 180 200 200 180 180 160 160 140 140 20 20 20 20 20 20
80 80 100 100 100 100 120 120 120 120 140 140 140 140 160 160 180 180 200 200 180 180 160 160 140 140 20 20 20 20 20 20
60 60 80 80 80 80 100 100 100 100 120 120 120 120 140 140 160 160 180 180 200 200 180 180 160 160 20 20 20 20 20 20
60 60 80 80 80 80 100 100 100 100 120 120 120 120 140 140 160 160 180 180 200 200 180 180 160 160 20 20 20 20 20 20
40 40 60 60 60 60 80 80 80 80 100 100 100 100 120 120 140 140 160 160 180 180 200 200 180 180 20 20 20 20 20 20
40 40 60 60 60 60 80 80 80 80 100 100 100 100 120 120 140 140 160 160 180 180 200 200 180 180 20 20 20 20 20 20
20 20 40 40 40 40 60 60 60 60 80 80 80 80 100 100 120 120 140 140 160 160 180 180 200 200 20 20 20 20 20 20
20 20 40 40 40 40 60 60 60 60 80 80 80 80 100 100 120 120 140 140 160 160 180 180 200 200 20 20 20 20 20 20
20 20 20 20 20 20 20 20 20 20 20 20 20 20 20 20 20 20 20 20 20 20 20 20 20 20 200 200 140 140 80 80
20 20 20 20 20 20 20 20 20 20 20 20 20 20 20 20 20 20 20 20 20 20 20 20 20 20 200 200 140 140 80 80
20 20 20 20 20 20 20 20 20 20 20 20 20 20 20 20 20 20 20 20 20 20 20 20 20 20 140 140 200 200 140 140
20 20 20 20 20 20 20 20 20 20 20 20 20 20 20 20 20 20 20 20 20 20 20 20 20 20 140 140 200 200 140 140
20 20 20 20 20 20 20 20 20 20 20 20 20 20 20 20 20 20 20 20 20 20 20 20 20 20 80 80 140 140 200 200
20 20 20 20 20 20 20 20 20 20 20 20 20 20 20 20 20 20 20 20 20 20 20 20 20 20 80 80 140 140 200 200


GTSP_SET_SECTION
1 1 2 -1
2 3 4 -1
3 5 6 -1
4 7 8 -1
5 9 10 -1
6 11 12 -1
7 13 14 -1
8 15 16 -1
9 17 18 -1
10 19 20 -1
11 21 22 -1
12 23 24 -1
13 25 26 -1
14 27 28 -1
15 29 30 -1
16 31 32 -1
EOF
